c "109556.clq"
p edge 250 3744
e 1 17
e 1 18
e 1 19
e 1 21
e 1 23
e 1 24
e 1 25
e 1 26
e 1 28
e 1 29
e 1 31
e 1 32
e 1 33
e 1 37
e 1 46
e 1 49
e 1 53
e 1 56
e 1 64
e 1 77
e 1 86
e 1 88
e 1 99
e 1 101
e 1 102
e 1 106
e 1 116
e 1 131
e 1 136
e 1 143
e 1 146
e 1 160
e 1 162
e 1 168
e 1 170
e 1 173
e 1 177
e 1 182
e 1 184
e 1 187
e 1 191
e 1 194
e 1 204
e 1 213
e 1 220
e 1 226
e 1 228
e 1 237
e 1 248
e 2 17
e 2 18
e 2 19
e 2 20
e 2 22
e 2 24
e 2 25
e 2 27
e 2 28
e 2 29
e 2 30
e 2 31
e 2 33
e 2 34
e 2 38
e 2 40
e 2 41
e 2 46
e 2 48
e 2 50
e 2 56
e 2 58
e 2 59
e 2 61
e 2 63
e 2 65
e 2 68
e 2 91
e 2 102
e 2 107
e 2 122
e 2 134
e 2 141
e 2 163
e 2 168
e 2 170
e 2 172
e 2 177
e 2 183
e 2 201
e 2 211
e 2 215
e 2 220
e 2 223
e 2 228
e 2 229
e 3 17
e 3 18
e 3 19
e 3 20
e 3 21
e 3 22
e 3 24
e 3 25
e 3 27
e 3 28
e 3 36
e 3 38
e 3 40
e 3 43
e 3 51
e 3 57
e 3 61
e 3 66
e 3 85
e 3 87
e 3 91
e 3 121
e 3 147
e 3 153
e 3 154
e 3 160
e 3 166
e 3 195
e 4 17
e 4 37
e 4 52
e 4 66
e 4 70
e 4 72
e 4 73
e 4 79
e 4 93
e 4 103
e 4 107
e 4 117
e 4 141
e 4 149
e 4 174
e 4 210
e 4 241
e 5 17
e 5 18
e 5 19
e 5 20
e 5 21
e 5 22
e 5 23
e 5 24
e 5 25
e 5 26
e 5 27
e 5 30
e 5 33
e 5 37
e 5 39
e 5 47
e 5 48
e 5 49
e 5 51
e 5 53
e 5 64
e 5 67
e 5 70
e 5 75
e 5 76
e 5 84
e 5 112
e 5 118
e 5 123
e 5 125
e 5 128
e 5 142
e 5 147
e 5 149
e 5 150
e 5 151
e 5 158
e 5 162
e 5 175
e 5 184
e 5 197
e 5 198
e 5 203
e 5 214
e 5 215
e 5 220
e 5 222
e 6 17
e 6 18
e 6 19
e 6 20
e 6 21
e 6 22
e 6 25
e 6 26
e 6 29
e 6 31
e 6 32
e 6 35
e 6 36
e 6 37
e 6 42
e 6 43
e 6 51
e 6 56
e 6 61
e 6 65
e 6 71
e 6 77
e 6 99
e 6 105
e 6 113
e 6 120
e 6 128
e 6 134
e 6 137
e 6 177
e 6 184
e 6 211
e 6 219
e 6 221
e 6 226
e 6 230
e 6 233
e 6 243
e 7 17
e 7 18
e 7 19
e 7 21
e 7 22
e 7 23
e 7 26
e 7 27
e 7 30
e 7 33
e 7 35
e 7 36
e 7 37
e 7 38
e 7 41
e 7 45
e 7 57
e 7 60
e 7 62
e 7 67
e 7 68
e 7 72
e 7 80
e 7 89
e 7 91
e 7 94
e 7 96
e 7 100
e 7 101
e 7 110
e 7 132
e 7 139
e 7 143
e 7 155
e 7 163
e 7 168
e 7 172
e 7 173
e 7 179
e 7 192
e 7 207
e 7 220
e 7 227
e 7 239
e 8 17
e 8 18
e 8 19
e 8 20
e 8 21
e 8 22
e 8 23
e 8 24
e 8 25
e 8 26
e 8 27
e 8 28
e 8 29
e 8 30
e 8 33
e 8 34
e 8 37
e 8 39
e 8 40
e 8 41
e 8 49
e 8 52
e 8 53
e 8 54
e 8 55
e 8 60
e 8 62
e 8 64
e 8 67
e 8 71
e 8 74
e 8 78
e 8 80
e 8 81
e 8 84
e 8 85
e 8 88
e 8 92
e 8 95
e 8 96
e 8 107
e 8 117
e 8 122
e 8 125
e 8 131
e 8 132
e 8 135
e 8 139
e 8 143
e 8 150
e 8 151
e 8 155
e 8 157
e 8 162
e 8 178
e 8 180
e 8 186
e 8 196
e 8 203
e 8 207
e 8 213
e 8 250
e 9 17
e 9 18
e 9 19
e 9 20
e 9 21
e 9 23
e 9 36
e 9 37
e 9 38
e 9 40
e 9 47
e 9 64
e 9 72
e 9 75
e 9 107
e 9 111
e 9 112
e 9 120
e 9 137
e 9 153
e 9 192
e 9 194
e 9 201
e 9 208
e 9 220
e 9 221
e 9 237
e 9 242
e 10 17
e 10 18
e 10 19
e 10 20
e 10 21
e 10 24
e 10 27
e 10 28
e 10 29
e 10 30
e 10 33
e 10 37
e 10 39
e 10 41
e 10 44
e 10 49
e 10 50
e 10 51
e 10 55
e 10 56
e 10 57
e 10 61
e 10 72
e 10 80
e 10 83
e 10 94
e 10 95
e 10 99
e 10 104
e 10 105
e 10 113
e 10 116
e 10 120
e 10 130
e 10 138
e 10 142
e 10 145
e 10 155
e 10 159
e 10 165
e 10 170
e 10 179
e 10 189
e 10 198
e 10 206
e 10 207
e 10 215
e 10 223
e 10 228
e 10 231
e 10 236
e 10 247
e 11 17
e 11 18
e 11 19
e 11 20
e 11 21
e 11 23
e 11 24
e 11 25
e 11 26
e 11 27
e 11 29
e 11 30
e 11 33
e 11 36
e 11 40
e 11 42
e 11 49
e 11 50
e 11 51
e 11 52
e 11 54
e 11 59
e 11 61
e 11 63
e 11 64
e 11 82
e 11 85
e 11 86
e 11 92
e 11 111
e 11 115
e 11 125
e 11 135
e 11 148
e 11 157
e 11 170
e 11 180
e 11 185
e 11 231
e 12 17
e 12 18
e 12 20
e 12 21
e 12 22
e 12 23
e 12 24
e 12 28
e 12 31
e 12 32
e 12 39
e 12 46
e 12 47
e 12 51
e 12 58
e 12 68
e 12 70
e 12 73
e 12 75
e 12 79
e 12 82
e 12 83
e 12 88
e 12 90
e 12 93
e 12 102
e 12 122
e 12 130
e 12 162
e 12 169
e 12 170
e 12 190
e 13 17
e 13 18
e 13 19
e 13 20
e 13 22
e 13 26
e 13 29
e 13 32
e 13 33
e 13 35
e 13 36
e 13 38
e 13 39
e 13 41
e 13 47
e 13 50
e 13 51
e 13 52
e 13 62
e 13 66
e 13 68
e 13 81
e 13 87
e 13 93
e 13 97
e 13 98
e 13 114
e 13 117
e 13 120
e 13 121
e 13 126
e 13 129
e 13 171
e 13 195
e 13 201
e 13 204
e 13 210
e 13 218
e 13 220
e 13 222
e 13 229
e 13 235
e 13 242
e 14 17
e 14 18
e 14 19
e 14 20
e 14 21
e 14 22
e 14 23
e 14 24
e 14 25
e 14 27
e 14 29
e 14 32
e 14 34
e 14 36
e 14 39
e 14 43
e 14 46
e 14 66
e 14 68
e 14 73
e 14 75
e 14 85
e 14 86
e 14 87
e 14 91
e 14 92
e 14 97
e 14 104
e 14 105
e 14 110
e 14 114
e 14 116
e 14 137
e 14 152
e 14 166
e 14 173
e 14 176
e 14 197
e 14 204
e 14 227
e 14 235
e 15 17
e 15 18
e 15 19
e 15 20
e 15 22
e 15 23
e 15 24
e 15 25
e 15 30
e 15 43
e 15 45
e 15 51
e 15 52
e 15 59
e 15 60
e 15 61
e 15 62
e 15 69
e 15 71
e 15 74
e 15 76
e 15 78
e 15 81
e 15 82
e 15 85
e 15 98
e 15 100
e 15 104
e 15 138
e 15 140
e 15 149
e 15 181
e 15 196
e 15 203
e 15 211
e 15 228
e 15 250
e 16 17
e 16 18
e 16 19
e 16 20
e 16 21
e 16 22
e 16 23
e 16 30
e 16 32
e 16 33
e 16 34
e 16 39
e 16 46
e 16 51
e 16 55
e 16 57
e 16 58
e 16 64
e 16 69
e 16 71
e 16 79
e 16 84
e 16 95
e 16 96
e 16 108
e 16 113
e 16 124
e 16 125
e 16 127
e 16 128
e 16 142
e 16 145
e 16 147
e 16 152
e 16 154
e 16 160
e 16 161
e 16 163
e 16 168
e 16 169
e 16 176
e 16 177
e 16 189
e 16 209
e 16 213
e 16 215
e 16 219
e 16 220
e 17 18
e 17 19
e 17 20
e 17 21
e 17 22
e 17 23
e 17 24
e 17 25
e 17 26
e 17 27
e 17 28
e 17 29
e 17 30
e 17 33
e 17 34
e 17 35
e 17 36
e 17 37
e 17 38
e 17 40
e 17 41
e 17 42
e 17 44
e 17 45
e 17 46
e 17 48
e 17 49
e 17 52
e 17 53
e 17 54
e 17 55
e 17 57
e 17 58
e 17 59
e 17 60
e 17 61
e 17 65
e 17 66
e 17 67
e 17 68
e 17 72
e 17 73
e 17 74
e 17 76
e 17 80
e 17 81
e 17 82
e 17 84
e 17 85
e 17 90
e 17 91
e 17 94
e 17 95
e 17 97
e 17 100
e 17 106
e 17 109
e 17 110
e 17 111
e 17 117
e 17 118
e 17 123
e 17 126
e 17 127
e 17 129
e 17 130
e 17 135
e 17 141
e 17 160
e 17 162
e 17 173
e 17 174
e 17 178
e 17 180
e 17 183
e 17 185
e 17 186
e 17 196
e 17 201
e 17 202
e 17 203
e 17 206
e 17 211
e 17 213
e 17 216
e 17 217
e 17 220
e 17 224
e 17 227
e 17 235
e 17 240
e 17 242
e 17 243
e 17 248
e 18 19
e 18 20
e 18 21
e 18 22
e 18 23
e 18 24
e 18 25
e 18 26
e 18 27
e 18 28
e 18 29
e 18 31
e 18 34
e 18 36
e 18 37
e 18 42
e 18 44
e 18 46
e 18 47
e 18 48
e 18 50
e 18 53
e 18 54
e 18 56
e 18 58
e 18 60
e 18 66
e 18 68
e 18 70
e 18 84
e 18 89
e 18 90
e 18 93
e 18 100
e 18 101
e 18 102
e 18 108
e 18 109
e 18 112
e 18 116
e 18 118
e 18 119
e 18 123
e 18 127
e 18 129
e 18 130
e 18 140
e 18 144
e 18 148
e 18 149
e 18 150
e 18 152
e 18 176
e 18 179
e 18 183
e 18 184
e 18 195
e 18 209
e 18 214
e 18 217
e 18 219
e 18 227
e 18 230
e 18 233
e 18 239
e 18 241
e 18 242
e 19 20
e 19 21
e 19 22
e 19 23
e 19 24
e 19 26
e 19 27
e 19 28
e 19 30
e 19 31
e 19 32
e 19 34
e 19 36
e 19 38
e 19 41
e 19 43
e 19 50
e 19 52
e 19 53
e 19 57
e 19 63
e 19 64
e 19 65
e 19 74
e 19 78
e 19 81
e 19 82
e 19 83
e 19 85
e 19 86
e 19 95
e 19 96
e 19 100
e 19 104
e 19 114
e 19 115
e 19 117
e 19 120
e 19 121
e 19 129
e 19 131
e 19 137
e 19 147
e 19 153
e 19 154
e 19 166
e 19 179
e 19 182
e 19 190
e 19 191
e 19 192
e 19 204
e 19 205
e 19 208
e 19 212
e 19 213
e 19 216
e 19 235
e 19 237
e 19 241
e 19 247
e 19 250
e 20 21
e 20 22
e 20 23
e 20 24
e 20 25
e 20 26
e 20 28
e 20 29
e 20 30
e 20 31
e 20 33
e 20 34
e 20 35
e 20 36
e 20 37
e 20 38
e 20 39
e 20 41
e 20 44
e 20 45
e 20 46
e 20 47
e 20 50
e 20 51
e 20 52
e 20 53
e 20 62
e 20 66
e 20 68
e 20 69
e 20 70
e 20 72
e 20 75
e 20 77
e 20 78
e 20 82
e 20 86
e 20 90
e 20 95
e 20 100
e 20 105
e 20 106
e 20 108
e 20 111
e 20 121
e 20 122
e 20 123
e 20 128
e 20 134
e 20 137
e 20 138
e 20 139
e 20 141
e 20 152
e 20 163
e 20 164
e 20 168
e 20 189
e 20 193
e 20 203
e 20 208
e 20 211
e 20 213
e 20 217
e 20 219
e 20 221
e 20 226
e 20 232
e 20 234
e 20 237
e 20 239
e 20 243
e 21 22
e 21 23
e 21 24
e 21 25
e 21 26
e 21 27
e 21 28
e 21 29
e 21 30
e 21 31
e 21 33
e 21 34
e 21 35
e 21 36
e 21 39
e 21 40
e 21 42
e 21 43
e 21 44
e 21 45
e 21 46
e 21 47
e 21 53
e 21 55
e 21 57
e 21 59
e 21 61
e 21 62
e 21 66
e 21 67
e 21 68
e 21 69
e 21 81
e 21 82
e 21 85
e 21 86
e 21 88
e 21 89
e 21 91
e 21 93
e 21 96
e 21 114
e 21 116
e 21 124
e 21 126
e 21 130
e 21 132
e 21 133
e 21 134
e 21 136
e 21 141
e 21 143
e 21 151
e 21 152
e 21 156
e 21 159
e 21 165
e 21 170
e 21 171
e 21 175
e 21 180
e 21 187
e 21 192
e 21 194
e 21 197
e 21 207
e 21 209
e 21 218
e 21 228
e 21 229
e 21 239
e 21 240
e 21 245
e 22 23
e 22 24
e 22 25
e 22 26
e 22 28
e 22 29
e 22 30
e 22 31
e 22 32
e 22 33
e 22 34
e 22 35
e 22 37
e 22 38
e 22 39
e 22 40
e 22 41
e 22 42
e 22 45
e 22 46
e 22 47
e 22 52
e 22 53
e 22 57
e 22 60
e 22 69
e 22 76
e 22 77
e 22 79
e 22 80
e 22 81
e 22 83
e 22 87
e 22 89
e 22 93
e 22 95
e 22 107
e 22 110
e 22 113
e 22 123
e 22 124
e 22 127
e 22 134
e 22 140
e 22 141
e 22 143
e 22 145
e 22 149
e 22 152
e 22 153
e 22 156
e 22 161
e 22 179
e 22 181
e 22 182
e 22 186
e 22 192
e 22 195
e 22 196
e 22 197
e 22 206
e 22 210
e 22 214
e 22 216
e 22 220
e 22 230
e 22 232
e 22 236
e 22 239
e 22 244
e 22 247
e 23 25
e 23 26
e 23 27
e 23 29
e 23 30
e 23 31
e 23 32
e 23 35
e 23 36
e 23 37
e 23 39
e 23 40
e 23 41
e 23 42
e 23 43
e 23 44
e 23 45
e 23 46
e 23 48
e 23 50
e 23 51
e 23 52
e 23 54
e 23 55
e 23 56
e 23 60
e 23 61
e 23 62
e 23 63
e 23 64
e 23 67
e 23 71
e 23 79
e 23 80
e 23 84
e 23 90
e 23 92
e 23 98
e 23 102
e 23 105
e 23 107
e 23 108
e 23 115
e 23 116
e 23 120
e 23 123
e 23 124
e 23 125
e 23 127
e 23 136
e 23 137
e 23 139
e 23 145
e 23 154
e 23 157
e 23 161
e 23 162
e 23 163
e 23 165
e 23 167
e 23 171
e 23 172
e 23 179
e 23 180
e 23 183
e 23 188
e 23 191
e 23 196
e 23 197
e 23 198
e 23 202
e 23 203
e 23 208
e 23 209
e 23 211
e 23 212
e 23 213
e 23 216
e 23 218
e 23 222
e 23 246
e 23 248
e 23 249
e 24 25
e 24 26
e 24 27
e 24 28
e 24 29
e 24 32
e 24 34
e 24 37
e 24 42
e 24 43
e 24 44
e 24 46
e 24 48
e 24 53
e 24 54
e 24 58
e 24 64
e 24 65
e 24 66
e 24 70
e 24 74
e 24 75
e 24 77
e 24 87
e 24 103
e 24 104
e 24 107
e 24 108
e 24 115
e 24 118
e 24 125
e 24 126
e 24 136
e 24 150
e 24 154
e 24 159
e 24 165
e 24 167
e 24 170
e 24 171
e 24 173
e 24 174
e 24 188
e 24 189
e 24 192
e 24 193
e 24 194
e 24 200
e 24 209
e 24 212
e 24 215
e 24 216
e 24 223
e 24 227
e 24 246
e 24 248
e 24 249
e 25 26
e 25 27
e 25 28
e 25 29
e 25 31
e 25 32
e 25 35
e 25 38
e 25 40
e 25 42
e 25 52
e 25 56
e 25 63
e 25 67
e 25 72
e 25 73
e 25 74
e 25 81
e 25 82
e 25 83
e 25 97
e 25 99
e 25 101
e 25 102
e 25 103
e 25 104
e 25 106
e 25 111
e 25 126
e 25 131
e 25 133
e 25 138
e 25 140
e 25 142
e 25 152
e 25 156
e 25 161
e 25 163
e 25 169
e 25 170
e 25 180
e 25 183
e 25 186
e 25 193
e 25 196
e 25 197
e 25 199
e 25 206
e 25 215
e 25 216
e 25 223
e 25 227
e 25 232
e 25 233
e 25 234
e 25 247
e 26 27
e 26 28
e 26 31
e 26 32
e 26 34
e 26 35
e 26 36
e 26 37
e 26 38
e 26 39
e 26 40
e 26 41
e 26 45
e 26 46
e 26 47
e 26 48
e 26 51
e 26 58
e 26 59
e 26 60
e 26 63
e 26 65
e 26 66
e 26 69
e 26 73
e 26 77
e 26 79
e 26 80
e 26 81
e 26 83
e 26 84
e 26 89
e 26 92
e 26 94
e 26 97
e 26 99
e 26 105
e 26 112
e 26 116
e 26 117
e 26 120
e 26 122
e 26 125
e 26 129
e 26 133
e 26 135
e 26 138
e 26 141
e 26 142
e 26 144
e 26 145
e 26 147
e 26 152
e 26 154
e 26 156
e 26 157
e 26 159
e 26 164
e 26 166
e 26 170
e 26 171
e 26 175
e 26 176
e 26 178
e 26 180
e 26 183
e 26 189
e 26 193
e 26 203
e 26 205
e 26 214
e 26 215
e 26 216
e 26 228
e 26 242
e 27 28
e 27 31
e 27 32
e 27 33
e 27 34
e 27 35
e 27 44
e 27 45
e 27 46
e 27 49
e 27 51
e 27 58
e 27 65
e 27 69
e 27 80
e 27 81
e 27 82
e 27 86
e 27 96
e 27 113
e 27 121
e 27 140
e 27 141
e 27 149
e 27 158
e 27 166
e 27 175
e 27 179
e 27 192
e 27 210
e 27 213
e 27 217
e 27 228
e 27 231
e 27 241
e 27 245
e 28 30
e 28 31
e 28 32
e 28 34
e 28 35
e 28 43
e 28 45
e 28 47
e 28 49
e 28 55
e 28 56
e 28 60
e 28 62
e 28 63
e 28 67
e 28 76
e 28 91
e 28 93
e 28 109
e 28 110
e 28 111
e 28 112
e 28 113
e 28 128
e 28 131
e 28 132
e 28 135
e 28 142
e 28 150
e 28 156
e 28 161
e 28 177
e 28 181
e 28 182
e 28 184
e 28 187
e 28 200
e 28 211
e 28 213
e 28 223
e 28 228
e 28 242
e 28 243
e 29 30
e 29 31
e 29 34
e 29 35
e 29 36
e 29 37
e 29 38
e 29 39
e 29 40
e 29 41
e 29 42
e 29 44
e 29 47
e 29 52
e 29 53
e 29 57
e 29 59
e 29 62
e 29 64
e 29 69
e 29 73
e 29 74
e 29 76
e 29 80
e 29 84
e 29 87
e 29 88
e 29 89
e 29 91
e 29 92
e 29 97
e 29 98
e 29 101
e 29 103
e 29 111
e 29 117
e 29 120
e 29 123
e 29 128
e 29 137
e 29 138
e 29 139
e 29 146
e 29 147
e 29 158
e 29 162
e 29 164
e 29 168
e 29 169
e 29 171
e 29 172
e 29 179
e 29 187
e 29 195
e 29 198
e 29 199
e 29 200
e 29 209
e 29 210
e 29 211
e 29 217
e 29 230
e 29 237
e 29 250
e 30 31
e 30 32
e 30 39
e 30 42
e 30 45
e 30 47
e 30 48
e 30 49
e 30 50
e 30 55
e 30 57
e 30 59
e 30 61
e 30 63
e 30 68
e 30 74
e 30 81
e 30 87
e 30 88
e 30 89
e 30 90
e 30 94
e 30 102
e 30 105
e 30 106
e 30 109
e 30 113
e 30 116
e 30 122
e 30 125
e 30 130
e 30 140
e 30 143
e 30 144
e 30 146
e 30 147
e 30 156
e 30 174
e 30 177
e 30 180
e 30 190
e 30 191
e 30 195
e 30 200
e 30 204
e 30 212
e 30 223
e 30 224
e 30 226
e 30 229
e 30 235
e 30 248
e 31 32
e 31 33
e 31 34
e 31 35
e 31 36
e 31 38
e 31 40
e 31 42
e 31 43
e 31 45
e 31 46
e 31 50
e 31 55
e 31 58
e 31 59
e 31 62
e 31 64
e 31 67
e 31 69
e 31 70
e 31 71
e 31 72
e 31 83
e 31 84
e 31 89
e 31 104
e 31 105
e 31 108
e 31 112
e 31 121
e 31 131
e 31 139
e 31 140
e 31 152
e 31 153
e 31 155
e 31 158
e 31 159
e 31 160
e 31 162
e 31 165
e 31 166
e 31 170
e 31 171
e 31 174
e 31 185
e 31 187
e 31 199
e 31 202
e 31 205
e 31 214
e 31 215
e 31 220
e 31 229
e 31 238
e 31 241
e 32 33
e 32 35
e 32 38
e 32 40
e 32 41
e 32 43
e 32 44
e 32 45
e 32 48
e 32 49
e 32 50
e 32 56
e 32 61
e 32 66
e 32 72
e 32 75
e 32 79
e 32 85
e 32 87
e 32 90
e 32 94
e 32 95
e 32 97
e 32 98
e 32 102
e 32 106
e 32 107
e 32 113
e 32 116
e 32 117
e 32 122
e 32 123
e 32 129
e 32 137
e 32 144
e 32 146
e 32 149
e 32 154
e 32 166
e 32 169
e 32 175
e 32 176
e 32 181
e 32 182
e 32 196
e 32 201
e 32 207
e 32 213
e 32 215
e 32 217
e 32 228
e 32 238
e 32 242
e 33 35
e 33 38
e 33 44
e 33 54
e 33 58
e 33 79
e 33 86
e 33 90
e 33 96
e 33 103
e 33 119
e 33 124
e 33 125
e 33 133
e 33 135
e 33 137
e 33 139
e 33 149
e 33 156
e 33 158
e 33 164
e 33 171
e 33 174
e 33 178
e 33 181
e 33 194
e 33 200
e 33 203
e 33 204
e 33 210
e 33 222
e 33 226
e 33 232
e 33 246
e 33 249
e 34 38
e 34 42
e 34 46
e 34 48
e 34 49
e 34 50
e 34 57
e 34 58
e 34 59
e 34 62
e 34 68
e 34 71
e 34 75
e 34 76
e 34 79
e 34 83
e 34 84
e 34 92
e 34 99
e 34 120
e 34 124
e 34 126
e 34 128
e 34 132
e 34 138
e 34 149
e 34 152
e 34 154
e 34 157
e 34 159
e 34 171
e 34 173
e 34 178
e 34 183
e 34 191
e 34 206
e 34 210
e 34 217
e 34 236
e 35 41
e 35 43
e 35 44
e 35 45
e 35 47
e 35 52
e 35 53
e 35 56
e 35 58
e 35 68
e 35 73
e 35 77
e 35 78
e 35 81
e 35 91
e 35 92
e 35 95
e 35 98
e 35 99
e 35 106
e 35 118
e 35 120
e 35 125
e 35 128
e 35 135
e 35 138
e 35 142
e 35 143
e 35 155
e 35 160
e 35 167
e 35 172
e 35 173
e 35 175
e 35 193
e 35 215
e 35 225
e 35 243
e 35 247
e 36 39
e 36 42
e 36 43
e 36 45
e 36 47
e 36 48
e 36 49
e 36 51
e 36 53
e 36 55
e 36 56
e 36 62
e 36 69
e 36 78
e 36 79
e 36 83
e 36 84
e 36 85
e 36 86
e 36 87
e 36 88
e 36 90
e 36 93
e 36 96
e 36 97
e 36 99
e 36 100
e 36 114
e 36 115
e 36 123
e 36 133
e 36 148
e 36 150
e 36 164
e 36 184
e 36 189
e 36 190
e 36 204
e 36 227
e 36 240
e 37 39
e 37 40
e 37 43
e 37 44
e 37 45
e 37 48
e 37 54
e 37 55
e 37 57
e 37 58
e 37 59
e 37 63
e 37 64
e 37 71
e 37 81
e 37 82
e 37 87
e 37 94
e 37 95
e 37 99
e 37 103
e 37 105
e 37 110
e 37 111
e 37 127
e 37 129
e 37 130
e 37 138
e 37 147
e 37 148
e 37 167
e 37 194
e 37 200
e 37 205
e 37 210
e 37 219
e 37 220
e 37 223
e 37 232
e 37 241
e 37 245
e 37 248
e 38 42
e 38 44
e 38 48
e 38 50
e 38 53
e 38 54
e 38 56
e 38 60
e 38 64
e 38 65
e 38 66
e 38 67
e 38 68
e 38 70
e 38 72
e 38 74
e 38 75
e 38 77
e 38 78
e 38 93
e 38 100
e 38 102
e 38 111
e 38 115
e 38 117
e 38 127
e 38 142
e 38 146
e 38 147
e 38 156
e 38 158
e 38 167
e 38 176
e 38 189
e 38 208
e 38 229
e 38 239
e 38 243
e 38 246
e 39 40
e 39 41
e 39 42
e 39 43
e 39 44
e 39 49
e 39 54
e 39 59
e 39 61
e 39 62
e 39 63
e 39 73
e 39 74
e 39 75
e 39 78
e 39 79
e 39 87
e 39 92
e 39 93
e 39 98
e 39 102
e 39 104
e 39 106
e 39 108
e 39 109
e 39 114
e 39 118
e 39 120
e 39 121
e 39 122
e 39 123
e 39 125
e 39 133
e 39 141
e 39 147
e 39 151
e 39 159
e 39 161
e 39 165
e 39 167
e 39 173
e 39 176
e 39 231
e 39 232
e 39 244
e 40 41
e 40 50
e 40 63
e 40 65
e 40 76
e 40 82
e 40 88
e 40 90
e 40 91
e 40 93
e 40 96
e 40 99
e 40 107
e 40 109
e 40 112
e 40 126
e 40 132
e 40 133
e 40 136
e 40 140
e 40 143
e 40 146
e 40 149
e 40 152
e 40 161
e 40 173
e 40 178
e 40 188
e 40 202
e 40 224
e 40 229
e 40 232
e 41 43
e 41 48
e 41 49
e 41 51
e 41 52
e 41 53
e 41 54
e 41 65
e 41 69
e 41 70
e 41 73
e 41 75
e 41 95
e 41 97
e 41 100
e 41 107
e 41 109
e 41 111
e 41 116
e 41 127
e 41 130
e 41 133
e 41 147
e 41 153
e 41 156
e 41 163
e 41 165
e 41 178
e 41 184
e 41 185
e 41 186
e 41 195
e 41 198
e 41 219
e 41 226
e 41 237
e 41 239
e 41 245
e 42 49
e 42 53
e 42 54
e 42 58
e 42 59
e 42 65
e 42 71
e 42 72
e 42 76
e 42 77
e 42 80
e 42 86
e 42 90
e 42 94
e 42 106
e 42 110
e 42 112
e 42 115
e 42 121
e 42 130
e 42 132
e 42 139
e 42 144
e 42 145
e 42 150
e 42 178
e 42 189
e 42 193
e 42 204
e 42 218
e 42 245
e 42 250
e 43 44
e 43 47
e 43 55
e 43 58
e 43 70
e 43 72
e 43 76
e 43 78
e 43 96
e 43 100
e 43 103
e 43 114
e 43 128
e 43 135
e 43 151
e 43 157
e 43 163
e 43 174
e 43 177
e 43 183
e 43 214
e 43 241
e 43 244
e 44 48
e 44 55
e 44 59
e 44 60
e 44 71
e 44 77
e 44 80
e 44 88
e 44 93
e 44 96
e 44 98
e 44 102
e 44 106
e 44 107
e 44 113
e 44 114
e 44 118
e 44 131
e 44 138
e 44 182
e 44 184
e 44 192
e 44 199
e 44 202
e 44 214
e 44 221
e 44 241
e 44 248
e 44 249
e 45 49
e 45 50
e 45 54
e 45 57
e 45 60
e 45 63
e 45 64
e 45 69
e 45 74
e 45 79
e 45 82
e 45 102
e 45 104
e 45 129
e 45 130
e 45 144
e 45 158
e 45 169
e 45 183
e 45 203
e 45 204
e 45 214
e 45 217
e 45 218
e 45 224
e 45 226
e 45 241
e 45 242
e 46 47
e 46 48
e 46 56
e 46 58
e 46 59
e 46 70
e 46 71
e 46 94
e 46 96
e 46 110
e 46 126
e 46 131
e 46 147
e 46 161
e 46 181
e 46 197
e 46 200
e 46 206
e 46 208
e 46 212
e 47 51
e 47 54
e 47 55
e 47 56
e 47 57
e 47 66
e 47 69
e 47 70
e 47 77
e 47 79
e 47 84
e 47 86
e 47 89
e 47 110
e 47 114
e 47 122
e 47 123
e 47 135
e 47 136
e 47 144
e 47 150
e 47 152
e 47 153
e 47 154
e 47 156
e 47 159
e 47 166
e 47 168
e 47 176
e 47 183
e 47 190
e 47 193
e 47 232
e 47 233
e 47 237
e 48 54
e 48 55
e 48 56
e 48 61
e 48 67
e 48 70
e 48 71
e 48 74
e 48 75
e 48 76
e 48 81
e 48 82
e 48 83
e 48 88
e 48 89
e 48 92
e 48 94
e 48 112
e 48 114
e 48 122
e 48 132
e 48 134
e 48 146
e 48 150
e 48 160
e 48 175
e 48 196
e 48 202
e 48 212
e 48 219
e 48 224
e 48 226
e 48 237
e 49 50
e 49 57
e 49 60
e 49 61
e 49 63
e 49 68
e 49 71
e 49 78
e 49 86
e 49 88
e 49 91
e 49 92
e 49 113
e 49 116
e 49 121
e 49 124
e 49 138
e 49 158
e 49 164
e 49 165
e 49 176
e 49 178
e 49 185
e 49 201
e 49 204
e 49 222
e 49 223
e 49 225
e 49 234
e 49 241
e 49 246
e 49 248
e 50 52
e 50 56
e 50 60
e 50 65
e 50 68
e 50 80
e 50 81
e 50 103
e 50 108
e 50 122
e 50 142
e 50 143
e 50 157
e 50 183
e 50 185
e 50 186
e 50 199
e 50 226
e 50 240
e 50 247
e 51 52
e 51 55
e 51 57
e 51 61
e 51 65
e 51 68
e 51 76
e 51 77
e 51 80
e 51 82
e 51 85
e 51 88
e 51 89
e 51 97
e 51 101
e 51 105
e 51 112
e 51 129
e 51 136
e 51 150
e 51 156
e 51 159
e 51 165
e 51 170
e 51 186
e 51 192
e 51 205
e 51 207
e 51 226
e 51 230
e 51 236
e 52 54
e 52 60
e 52 79
e 52 83
e 52 90
e 52 91
e 52 96
e 52 99
e 52 105
e 52 107
e 52 110
e 52 119
e 52 132
e 52 135
e 52 142
e 52 154
e 52 169
e 52 194
e 52 207
e 52 223
e 52 241
e 53 60
e 53 65
e 53 67
e 53 76
e 53 84
e 53 92
e 53 97
e 53 98
e 53 109
e 53 115
e 53 116
e 53 120
e 53 128
e 53 139
e 53 187
e 53 188
e 53 198
e 53 206
e 53 221
e 53 232
e 53 246
e 54 77
e 54 95
e 54 110
e 54 114
e 54 136
e 54 140
e 54 144
e 54 177
e 54 179
e 54 192
e 54 225
e 55 61
e 55 62
e 55 63
e 55 69
e 55 79
e 55 81
e 55 83
e 55 88
e 55 94
e 55 98
e 55 110
e 55 141
e 55 145
e 55 174
e 55 204
e 55 206
e 55 213
e 55 216
e 55 224
e 55 225
e 55 240
e 55 242
e 55 244
e 55 247
e 56 64
e 56 73
e 56 98
e 56 100
e 56 103
e 56 105
e 56 116
e 56 117
e 56 133
e 56 138
e 56 139
e 56 148
e 56 150
e 56 163
e 56 167
e 56 169
e 56 173
e 56 179
e 56 190
e 56 192
e 56 200
e 56 214
e 56 234
e 56 242
e 56 243
e 57 62
e 57 63
e 57 67
e 57 72
e 57 83
e 57 95
e 57 98
e 57 103
e 57 108
e 57 109
e 57 117
e 57 120
e 57 125
e 57 127
e 57 134
e 57 153
e 57 162
e 57 180
e 57 201
e 57 205
e 57 231
e 58 59
e 58 65
e 58 73
e 58 76
e 58 77
e 58 92
e 58 119
e 58 134
e 58 135
e 58 139
e 58 151
e 58 158
e 58 169
e 58 179
e 58 181
e 58 194
e 58 199
e 58 220
e 58 229
e 58 233
e 58 234
e 58 236
e 59 63
e 59 69
e 59 70
e 59 75
e 59 87
e 59 88
e 59 98
e 59 99
e 59 101
e 59 130
e 59 134
e 59 138
e 59 155
e 59 157
e 59 159
e 59 166
e 59 208
e 59 215
e 59 221
e 59 238
e 60 62
e 60 64
e 60 70
e 60 77
e 60 78
e 60 84
e 60 85
e 60 89
e 60 93
e 60 97
e 60 113
e 60 126
e 60 135
e 60 160
e 60 162
e 60 167
e 60 190
e 60 195
e 60 197
e 60 204
e 60 222
e 60 225
e 60 226
e 60 233
e 60 235
e 61 70
e 61 74
e 61 78
e 61 94
e 61 97
e 61 101
e 61 102
e 61 118
e 61 128
e 61 137
e 61 148
e 61 172
e 61 182
e 61 200
e 61 206
e 61 223
e 61 236
e 62 67
e 62 80
e 62 84
e 62 93
e 62 99
e 62 100
e 62 104
e 62 125
e 62 148
e 62 157
e 62 174
e 62 184
e 62 234
e 62 245
e 63 65
e 63 66
e 63 71
e 63 86
e 63 101
e 63 103
e 63 111
e 63 116
e 63 127
e 63 137
e 63 151
e 63 161
e 63 175
e 63 179
e 63 191
e 63 222
e 63 228
e 63 237
e 63 244
e 64 66
e 64 71
e 64 74
e 64 85
e 64 115
e 64 122
e 64 124
e 64 128
e 64 131
e 64 155
e 64 166
e 64 180
e 64 187
e 64 189
e 64 210
e 64 215
e 64 222
e 64 235
e 65 66
e 65 67
e 65 71
e 65 72
e 65 74
e 65 94
e 65 95
e 65 97
e 65 115
e 65 118
e 65 119
e 65 140
e 66 67
e 66 73
e 66 78
e 66 80
e 66 86
e 66 91
e 66 105
e 66 106
e 66 109
e 66 114
e 66 115
e 66 117
e 66 121
e 66 126
e 66 130
e 66 132
e 66 139
e 66 144
e 66 151
e 66 153
e 66 160
e 66 170
e 66 172
e 66 180
e 66 185
e 66 187
e 66 191
e 66 193
e 66 195
e 66 202
e 66 214
e 66 223
e 66 230
e 66 234
e 66 250
e 67 72
e 67 80
e 67 88
e 67 89
e 67 90
e 67 140
e 67 143
e 67 151
e 67 158
e 67 194
e 67 204
e 67 207
e 67 229
e 67 240
e 67 245
e 68 69
e 68 73
e 68 79
e 68 91
e 68 98
e 68 99
e 68 101
e 68 104
e 68 110
e 68 115
e 68 118
e 68 133
e 68 136
e 68 137
e 68 141
e 68 161
e 68 176
e 68 221
e 68 231
e 68 246
e 69 72
e 69 73
e 69 82
e 69 83
e 69 90
e 69 103
e 69 109
e 69 115
e 69 119
e 69 124
e 69 131
e 69 143
e 69 145
e 69 151
e 69 160
e 69 183
e 69 198
e 69 208
e 69 209
e 69 243
e 69 246
e 70 74
e 70 99
e 70 122
e 70 132
e 70 144
e 70 145
e 70 155
e 70 160
e 70 161
e 70 174
e 70 182
e 70 194
e 70 195
e 70 196
e 70 198
e 70 200
e 70 201
e 70 202
e 70 209
e 70 236
e 71 73
e 71 75
e 71 92
e 71 94
e 71 101
e 71 149
e 71 150
e 71 152
e 71 155
e 71 173
e 71 199
e 71 217
e 71 230
e 72 76
e 72 77
e 72 78
e 72 84
e 72 97
e 72 102
e 72 106
e 72 111
e 72 117
e 72 121
e 72 127
e 72 134
e 72 137
e 72 140
e 72 146
e 72 156
e 72 167
e 72 177
e 72 185
e 72 186
e 72 191
e 72 198
e 72 206
e 72 213
e 72 219
e 72 225
e 72 242
e 73 75
e 73 78
e 73 83
e 73 86
e 73 89
e 73 95
e 73 101
e 73 103
e 73 111
e 73 116
e 73 118
e 73 119
e 73 124
e 73 125
e 73 135
e 73 153
e 73 156
e 73 157
e 73 178
e 73 197
e 73 230
e 73 236
e 73 245
e 73 249
e 74 75
e 74 85
e 74 91
e 74 106
e 74 109
e 74 118
e 74 141
e 74 143
e 74 162
e 74 165
e 74 182
e 74 203
e 74 216
e 74 217
e 74 219
e 74 236
e 75 76
e 75 78
e 75 82
e 75 86
e 75 91
e 75 104
e 75 106
e 75 107
e 75 108
e 75 111
e 75 114
e 75 126
e 75 140
e 75 146
e 75 161
e 75 170
e 75 172
e 75 174
e 75 175
e 75 179
e 75 188
e 75 202
e 75 227
e 75 239
e 76 85
e 76 115
e 76 122
e 76 136
e 76 164
e 76 168
e 76 175
e 76 187
e 76 200
e 76 230
e 77 85
e 77 101
e 77 104
e 77 109
e 77 114
e 77 117
e 77 129
e 77 131
e 77 134
e 77 141
e 77 157
e 77 159
e 77 162
e 77 181
e 77 199
e 77 227
e 77 243
e 78 88
e 78 89
e 78 100
e 78 103
e 78 107
e 78 112
e 78 117
e 78 124
e 78 138
e 78 143
e 78 174
e 78 182
e 78 184
e 78 187
e 78 194
e 78 214
e 78 231
e 78 243
e 79 89
e 79 94
e 79 98
e 79 142
e 79 145
e 79 201
e 79 225
e 79 229
e 79 246
e 80 90
e 80 94
e 80 97
e 80 106
e 80 110
e 80 127
e 80 131
e 80 143
e 80 146
e 80 187
e 80 194
e 80 201
e 80 220
e 80 221
e 80 246
e 81 83
e 81 109
e 81 189
e 81 198
e 81 229
e 81 233
e 82 87
e 82 120
e 82 129
e 82 158
e 82 181
e 82 189
e 82 209
e 82 215
e 82 236
e 82 247
e 83 87
e 83 102
e 83 108
e 83 123
e 83 131
e 83 134
e 83 150
e 83 154
e 83 169
e 83 174
e 83 175
e 83 205
e 83 207
e 83 208
e 83 215
e 83 235
e 84 93
e 84 96
e 84 100
e 84 108
e 84 113
e 84 147
e 84 190
e 84 208
e 84 214
e 84 222
e 84 242
e 85 87
e 85 96
e 85 119
e 85 127
e 85 141
e 85 164
e 85 181
e 85 185
e 85 192
e 85 196
e 85 203
e 85 241
e 86 87
e 86 90
e 86 93
e 86 95
e 86 99
e 86 104
e 86 114
e 86 121
e 86 123
e 86 124
e 86 216
e 86 247
e 87 92
e 87 96
e 87 112
e 87 144
e 87 177
e 87 186
e 87 218
e 87 245
e 88 103
e 88 104
e 88 112
e 88 113
e 88 120
e 88 125
e 88 131
e 88 139
e 88 144
e 88 150
e 88 156
e 88 205
e 88 208
e 88 233
e 88 234
e 89 123
e 89 129
e 89 143
e 89 152
e 89 164
e 89 171
e 89 173
e 89 177
e 89 182
e 89 183
e 89 205
e 89 231
e 89 232
e 89 242
e 89 244
e 90 98
e 90 133
e 90 164
e 90 172
e 90 216
e 90 224
e 90 243
e 91 92
e 91 113
e 91 130
e 91 133
e 91 139
e 91 149
e 91 158
e 91 176
e 91 202
e 91 205
e 91 241
e 92 105
e 92 108
e 92 119
e 92 147
e 92 155
e 92 168
e 92 170
e 92 171
e 92 188
e 92 223
e 92 224
e 93 105
e 93 108
e 93 122
e 93 167
e 93 175
e 93 214
e 94 106
e 94 107
e 94 119
e 94 124
e 94 130
e 94 133
e 94 139
e 94 144
e 94 145
e 94 153
e 94 162
e 94 190
e 94 193
e 94 217
e 94 222
e 94 226
e 94 227
e 94 231
e 94 238
e 94 240
e 94 249
e 95 100
e 95 104
e 95 112
e 95 124
e 95 128
e 95 133
e 95 134
e 95 137
e 95 185
e 95 196
e 95 204
e 95 205
e 95 208
e 95 237
e 96 127
e 96 144
e 96 169
e 96 184
e 96 199
e 96 205
e 96 211
e 96 212
e 96 233
e 97 101
e 97 125
e 97 140
e 97 146
e 97 155
e 97 161
e 97 191
e 97 220
e 97 229
e 97 234
e 98 100
e 98 101
e 98 118
e 98 119
e 98 126
e 98 140
e 98 146
e 98 148
e 98 153
e 98 157
e 98 160
e 98 164
e 98 171
e 98 177
e 98 197
e 98 203
e 98 212
e 98 214
e 98 221
e 98 224
e 98 240
e 98 246
e 98 249
e 99 101
e 99 105
e 99 129
e 99 142
e 99 147
e 99 154
e 99 166
e 99 168
e 99 172
e 99 176
e 99 178
e 99 203
e 99 206
e 99 216
e 99 233
e 99 244
e 100 102
e 100 103
e 100 109
e 100 110
e 100 114
e 100 121
e 100 126
e 100 142
e 100 154
e 100 160
e 100 161
e 100 166
e 100 176
e 100 177
e 100 180
e 100 193
e 100 197
e 100 200
e 100 202
e 100 212
e 100 218
e 100 228
e 100 246
e 100 248
e 101 111
e 101 119
e 101 129
e 101 136
e 101 144
e 101 164
e 101 165
e 101 218
e 102 119
e 102 145
e 102 146
e 102 149
e 102 159
e 102 163
e 102 188
e 102 209
e 102 214
e 102 233
e 102 247
e 102 249
e 103 124
e 103 128
e 103 158
e 103 170
e 103 183
e 103 195
e 103 196
e 103 207
e 103 218
e 103 230
e 103 237
e 103 239
e 103 250
e 104 118
e 104 190
e 104 201
e 104 219
e 104 221
e 104 225
e 104 238
e 104 240
e 105 112
e 105 113
e 105 117
e 105 127
e 105 130
e 105 132
e 105 137
e 105 148
e 105 149
e 105 152
e 105 156
e 105 196
e 105 202
e 105 217
e 105 236
e 105 237
e 105 248
e 106 107
e 106 108
e 106 118
e 106 121
e 106 122
e 106 135
e 106 163
e 106 168
e 106 171
e 106 184
e 106 191
e 106 210
e 106 222
e 106 234
e 107 108
e 107 109
e 107 110
e 107 111
e 107 115
e 107 129
e 107 162
e 107 165
e 107 181
e 107 192
e 107 201
e 108 119
e 108 145
e 108 159
e 108 233
e 109 112
e 109 148
e 109 166
e 109 169
e 109 185
e 109 242
e 110 115
e 110 123
e 110 142
e 110 147
e 110 172
e 110 180
e 110 184
e 110 218
e 110 227
e 110 244
e 110 245
e 111 113
e 111 130
e 111 136
e 111 207
e 111 217
e 111 236
e 111 248
e 112 119
e 112 121
e 112 124
e 112 128
e 112 129
e 112 140
e 112 154
e 112 213
e 112 239
e 113 116
e 113 126
e 113 127
e 113 141
e 113 149
e 113 159
e 113 167
e 113 169
e 113 178
e 113 182
e 113 184
e 113 194
e 113 197
e 113 198
e 113 207
e 113 221
e 113 224
e 113 226
e 114 118
e 114 119
e 114 177
e 115 120
e 115 123
e 115 154
e 115 181
e 115 192
e 116 121
e 116 133
e 116 151
e 116 163
e 116 175
e 116 231
e 116 244
e 116 247
e 117 169
e 117 197
e 117 199
e 117 232
e 117 240
e 118 167
e 118 174
e 118 177
e 118 188
e 118 200
e 118 208
e 118 232
e 118 235
e 119 135
e 119 145
e 119 148
e 119 165
e 119 167
e 119 188
e 119 228
e 119 246
e 119 248
e 120 131
e 120 134
e 120 138
e 120 148
e 120 153
e 120 155
e 120 163
e 120 189
e 120 190
e 120 201
e 120 206
e 120 217
e 120 238
e 120 249
e 121 132
e 121 143
e 121 201
e 121 244
e 122 132
e 122 145
e 122 169
e 122 219
e 122 222
e 122 249
e 123 126
e 123 138
e 123 145
e 123 148
e 123 161
e 123 186
e 123 193
e 123 205
e 124 126
e 124 132
e 124 134
e 124 136
e 124 157
e 124 180
e 124 187
e 124 197
e 124 212
e 124 238
e 124 244
e 124 249
e 125 128
e 125 136
e 125 137
e 125 156
e 125 158
e 125 159
e 125 174
e 125 182
e 125 194
e 125 225
e 125 230
e 126 150
e 126 151
e 126 157
e 126 162
e 126 181
e 126 191
e 126 198
e 126 202
e 126 223
e 126 228
e 126 229
e 126 230
e 126 239
e 127 131
e 127 132
e 127 135
e 127 163
e 127 166
e 127 194
e 127 201
e 127 210
e 128 134
e 128 155
e 128 160
e 128 164
e 128 165
e 128 167
e 128 180
e 128 195
e 129 148
e 129 151
e 129 153
e 129 193
e 129 207
e 129 247
e 130 136
e 130 139
e 130 175
e 130 202
e 130 245
e 131 141
e 131 225
e 132 133
e 132 136
e 132 148
e 132 169
e 132 172
e 132 178
e 132 211
e 132 212
e 132 224
e 132 232
e 132 238
e 132 248
e 133 151
e 133 185
e 134 162
e 134 167
e 134 168
e 134 190
e 134 209
e 134 226
e 135 142
e 135 148
e 135 172
e 135 178
e 135 184
e 135 186
e 135 206
e 135 209
e 136 142
e 136 174
e 136 190
e 136 245
e 137 185
e 137 191
e 137 197
e 138 160
e 138 183
e 138 185
e 138 190
e 138 235
e 139 157
e 139 184
e 139 199
e 139 209
e 139 232
e 139 247
e 140 181
e 140 199
e 140 210
e 140 215
e 140 228
e 140 229
e 140 230
e 140 245
e 141 144
e 141 150
e 141 153
e 141 161
e 141 181
e 141 206
e 141 211
e 141 213
e 141 227
e 141 230
e 141 235
e 141 250
e 142 155
e 142 160
e 142 201
e 142 212
e 142 216
e 143 146
e 143 154
e 143 164
e 143 221
e 143 231
e 143 239
e 143 250
e 144 146
e 144 168
e 144 177
e 144 187
e 144 199
e 144 219
e 144 240
e 145 146
e 145 172
e 145 188
e 145 236
e 145 237
e 145 244
e 145 249
e 146 153
e 146 214
e 146 238
e 146 239
e 147 152
e 147 185
e 147 199
e 147 207
e 147 225
e 147 243
e 147 246
e 148 149
e 148 151
e 148 155
e 148 164
e 148 186
e 148 188
e 148 198
e 148 213
e 148 233
e 148 249
e 149 151
e 149 164
e 149 173
e 149 179
e 149 180
e 149 181
e 149 186
e 149 193
e 149 223
e 149 225
e 150 171
e 150 179
e 150 198
e 151 158
e 151 199
e 151 216
e 151 230
e 151 241
e 152 168
e 152 196
e 152 224
e 153 167
e 153 173
e 153 229
e 153 231
e 153 245
e 154 155
e 154 163
e 154 165
e 154 188
e 154 197
e 154 238
e 154 239
e 154 245
e 155 157
e 155 158
e 155 165
e 155 170
e 155 173
e 155 199
e 155 208
e 155 236
e 155 238
e 156 159
e 156 176
e 156 189
e 156 220
e 156 234
e 156 248
e 157 176
e 157 218
e 158 175
e 158 244
e 159 163
e 159 168
e 159 172
e 159 185
e 159 190
e 159 205
e 159 224
e 159 234
e 160 182
e 160 186
e 160 200
e 160 217
e 161 219
e 161 226
e 162 166
e 162 187
e 162 188
e 162 189
e 162 224
e 163 166
e 163 175
e 163 176
e 163 182
e 163 195
e 163 216
e 163 225
e 163 233
e 163 247
e 164 171
e 164 173
e 164 219
e 165 168
e 165 182
e 165 207
e 165 211
e 166 171
e 166 187
e 166 188
e 166 212
e 166 216
e 166 234
e 166 248
e 167 172
e 167 178
e 167 188
e 167 193
e 167 203
e 168 208
e 168 210
e 168 218
e 169 192
e 169 200
e 169 204
e 170 212
e 170 215
e 171 186
e 171 211
e 171 229
e 172 195
e 172 212
e 172 219
e 172 240
e 174 187
e 174 191
e 174 200
e 174 227
e 174 231
e 175 179
e 175 183
e 175 189
e 175 191
e 175 205
e 175 211
e 175 224
e 175 249
e 176 190
e 176 203
e 177 178
e 177 189
e 177 195
e 178 206
e 178 243
e 178 244
e 178 250
e 179 231
e 179 240
e 180 191
e 180 195
e 180 221
e 181 191
e 181 202
e 181 212
e 181 222
e 182 188
e 182 240
e 183 196
e 183 204
e 183 213
e 184 186
e 184 193
e 184 194
e 184 198
e 184 218
e 185 206
e 185 221
e 185 225
e 186 193
e 186 240
e 186 250
e 187 220
e 187 222
e 188 203
e 188 239
e 189 209
e 189 232
e 190 198
e 190 238
e 190 240
e 190 241
e 191 192
e 191 196
e 191 235
e 192 205
e 192 230
e 192 250
e 193 209
e 193 218
e 194 209
e 194 219
e 195 202
e 195 208
e 195 236
e 196 226
e 196 227
e 196 242
e 197 221
e 198 243
e 199 211
e 199 223
e 199 243
e 199 248
e 200 210
e 202 211
e 202 228
e 202 245
e 202 246
e 202 250
e 203 227
e 203 235
e 203 243
e 204 207
e 204 210
e 204 232
e 205 237
e 205 244
e 206 222
e 206 238
e 209 210
e 209 218
e 209 221
e 209 225
e 209 235
e 210 217
e 210 218
e 210 241
e 211 223
e 211 225
e 211 233
e 211 238
e 212 222
e 213 235
e 213 246
e 214 228
e 214 231
e 214 242
e 215 233
e 215 237
e 215 247
e 217 249
e 218 227
e 219 237
e 220 224
e 220 231
e 221 234
e 221 250
e 222 234
e 225 247
e 227 238
e 228 235
e 228 238
e 229 234
e 231 239
e 233 244
e 235 236
e 236 250
e 246 249
e 248 250
